
Gurobi 7.5.1 (mac64, Python) logging started Wed Sep  6 22:02:52 2017

Academic license - for non-commercial use only

Gurobi 7.5.1 (mac64, Python) logging started Wed Sep  6 22:37:17 2017

Academic license - for non-commercial use only

Gurobi 7.5.1 (mac64, Python) logging started Thu Sep  7 00:46:28 2017

Academic license - for non-commercial use only

Gurobi 7.5.1 (mac64, Python) logging started Thu Sep  7 00:48:08 2017

Academic license - for non-commercial use only

Gurobi 7.5.1 (mac64, Python) logging started Thu Sep  7 00:48:24 2017

Academic license - for non-commercial use only

Gurobi 7.5.1 (mac64, Python) logging started Thu Sep  7 00:48:36 2017

Academic license - for non-commercial use only
